399,18
532,112
545,139
751,-38
981,406
975,555
510,461
463,564
718,520
709,583
681,826
660,427
709,397
972,617
718,292
1101,406
894,514
744,469
668,432
652,410
415,213
533,383
523,188
559,166
597,-127
533,-50
753,354
1162,651
602,909
